p edge 35 80
e 1 2
e 1 3
e 1 4
e 2 19
e 2 7
e 2 4
e 3 34
e 3 35
e 3 4
e 4 7
e 4 10
e 4 11
e 4 35
e 4 33
e 5 6
e 5 7
e 5 8
e 5 9
e 5 10
e 5 11
e 6 9
e 6 15
e 6 17
e 6 18
e 7 19
e 7 8
e 7 10
e 7 11
e 8 22
e 8 26
e 8 9
e 8 23
e 8 11
e 9 22
e 9 17
e 10 31
e 10 15
e 10 33
e 11 19
e 11 25
e 11 26
e 11 20
e 11 29
e 12 13
e 12 14
e 12 15
e 12 16
e 13 31
e 13 16
e 14 30
e 14 15
e 14 18
e 15 17
e 15 32
e 15 18
e 16 30
e 16 31
e 17 21
e 17 24
e 18 21
e 19 20
e 20 29
e 22 23
e 22 24
e 23 26
e 23 28
e 23 24
e 25 26
e 25 27
e 25 28
e 25 29
e 26 29
e 27 29
e 31 32
e 31 33
e 32 34
e 32 35
e 32 33
e 33 35
e 34 35
l 35
